13 965
525 7 482 7 362 7 201 9 13 11 819 18
525 7 482 7 362 7 201 9 13 11 819 18
528 7 482 7 301 7 114 9 881 11 697 15 580 22
525 7 484 7 368 7 123 9 857 11 631 18
525 7 482 7 394 7 212 9 29 11 822 15 623 21
528 7 485 7 368 7 122 9 951 13
528 7 485 7 368 7 122 9 951 13
528 7 485 7 368 7 122 9 951 13
525 7 484 7 368 7 123 9 857 11 632 18
520 7 444 7 352 7 190 9 19 11 841 15 712 23
535 8 492 8 398 9 277 10 183 14 57 26 896 50
525 7 445 7 264 7 63 9 889 11 721 18
525 7 445 7 264 7 63 9 889 11 721 18
